(set-option :produce-models true); benchmark generated from python API
(set-info :status unknown)
(declare-fun l_0_0_6 () Real)
(declare-fun l_0_0_5 () Real)
(declare-fun _a_0_ () Real)
(declare-fun l_0_0_4 () Real)
(declare-fun l_0_0_3 () Real)
(declare-fun l_0_0_2 () Real)
(declare-fun l_0_0_1 () Real)
(declare-fun _a_1_ () Real)
(declare-fun _a_2_ () Real)
(declare-fun l_0_1_9 () Real)
(declare-fun l_0_1_8 () Real)
(declare-fun l_0_1_6 () Real)
(declare-fun l_0_1_5 () Real)
(declare-fun l_0_1_3 () Real)
(declare-fun l_0_1_2 () Real)
(declare-fun l_0_1_7 () Real)
(declare-fun l_0_1_4 () Real)
(declare-fun l_0_1_1 () Real)
(declare-fun l_0_2_9 () Real)
(declare-fun l_0_2_8 () Real)
(declare-fun l_0_2_6 () Real)
(declare-fun l_0_2_5 () Real)
(declare-fun l_0_2_3 () Real)
(declare-fun l_0_2_2 () Real)
(declare-fun l_0_2_7 () Real)
(declare-fun l_0_2_4 () Real)
(declare-fun l_0_2_1 () Real)
(assert
 (= (- (- _a_0_ (* l_0_0_5 l_0_0_5)) (* l_0_0_6 l_0_0_6)) 0.0))
(assert
 (let ((?x71 (* l_0_0_4 l_0_0_4)))
 (let ((?x69 (* l_0_0_3 l_0_0_3)))
 (let ((?x67 (* l_0_0_2 l_0_0_2)))
 (let ((?x72 (- (+ (+ (- _a_1_ (* (* 2.0 l_0_0_1) l_0_0_2)) ?x67) ?x69) ?x71)))
 (= ?x72 0.0))))))
(assert
 (let ((?x92 (- (- _a_2_ (* (* 1.0 l_0_0_2) l_0_0_2)) (* (* 1.0 l_0_0_3) l_0_0_3))))
 (= (- ?x92 (* (* 2.0 l_0_0_4) l_0_0_5)) 0.0)))
(assert
 (let ((?x65 (* (* 2.0 l_0_0_1) l_0_0_2)))
 (= (- ?x65 (* (* 1.0 l_0_0_1) l_0_0_1)) 0.0)))
(assert
 (let ((?x113 (* l_0_0_1 l_0_0_1)))
 (= ?x113 0.0)))
(assert
 (>= l_0_0_1 0.0))
(assert
 (>= l_0_0_3 0.0))
(assert
 (>= l_0_0_4 0.0))
(assert
 (>= l_0_0_6 0.0))
(assert
 (let ((?x136 (* l_0_1_9 l_0_1_9)))
 (let ((?x134 (* l_0_1_8 l_0_1_8)))
 (let ((?x131 (* l_0_1_6 l_0_1_6)))
 (let ((?x132 (* (/ 51.0 100.0) ?x131)))
 (let ((?x127 (* l_0_1_5 l_0_1_5)))
 (let ((?x129 (* (/ 51.0 100.0) ?x127)))
 (let ((?x130 (+ (* (- _a_0_) (+ (* l_0_1_2 l_0_1_2) (* l_0_1_3 l_0_1_3))) ?x129)))
 (= (+ (- (- (+ ?x130 ?x132) ?x134) ?x136) (/ 3.0 2.0)) 0.0)))))))))
(assert
 (let ((?x173 (* l_0_1_7 l_0_1_7)))
 (let ((?x131 (* l_0_1_6 l_0_1_6)))
 (let ((?x127 (* l_0_1_5 l_0_1_5)))
 (let ((?x168 (* l_0_1_4 l_0_1_4)))
 (let ((?x169 (* (/ 51.0 100.0) ?x168)))
 (let ((?x159 (- (* (* (- _a_0_) l_0_1_1) l_0_1_1) (* _a_1_ (+ (* l_0_1_2 l_0_1_2) (* l_0_1_3 l_0_1_3))))))
 (let ((?x167 (+ (- ?x159 (* (* (* 2.0 _a_2_) l_0_1_1) l_0_1_2)) (* (* (/ 14.0 5.0) l_0_1_4) l_0_1_5))))
 (= (- (- (- (- (+ ?x167 ?x169) ?x127) ?x131) ?x173) 1.0) 0.0)))))))))
(assert
 (let ((?x131 (* l_0_1_6 l_0_1_6)))
 (let ((?x230 (* (/ 7.0 5.0) ?x131)))
 (let ((?x127 (* l_0_1_5 l_0_1_5)))
 (let ((?x228 (* (/ 7.0 5.0) ?x127)))
 (let ((?x222 (- (* (* (* (- 2.0) _a_0_) l_0_1_1) l_0_1_2) (* _a_2_ (+ (* l_0_1_2 l_0_1_2) (* l_0_1_3 l_0_1_3))))))
 (let ((?x234 (- (+ (+ (+ ?x222 (* (* (/ 51.0 50.0) l_0_1_4) l_0_1_5)) ?x228) ?x230) (* (* 2.0 l_0_1_7) l_0_1_8))))
 (= (+ ?x234 (/ 1.0 2.0)) 0.0))))))))
(assert
 (= (- (* (* (- _a_1_) l_0_1_1) l_0_1_1) (* l_0_1_4 l_0_1_4)) 0.0))
(assert
 (let ((?x168 (* l_0_1_4 l_0_1_4)))
 (let ((?x284 (* (/ 7.0 5.0) ?x168)))
 (let ((?x280 (- (* (* (* (- 2.0) _a_1_) l_0_1_1) l_0_1_2) (* (* _a_2_ l_0_1_1) l_0_1_1))))
 (= (+ (- ?x280 (* (* 2.0 l_0_1_4) l_0_1_5)) ?x284) 0.0)))))
(assert
 (>= l_0_1_1 0.0))
(assert
 (>= l_0_1_3 0.0))
(assert
 (>= l_0_1_4 0.0))
(assert
 (>= l_0_1_6 0.0))
(assert
 (>= l_0_1_7 0.0))
(assert
 (>= l_0_1_9 0.0))
(assert
 (let ((?x319 (* l_0_2_9 l_0_2_9)))
 (let ((?x317 (* l_0_2_8 l_0_2_8)))
 (let ((?x310 (+ (* (- _a_0_) (+ (* l_0_2_2 l_0_2_2) (* l_0_2_3 l_0_2_3))) _a_0_)))
 (let ((?x316 (- (- ?x310 (* (* (/ 51.0 100.0) l_0_2_5) l_0_2_5)) (* (* (/ 51.0 100.0) l_0_2_6) l_0_2_6))))
 (= (- (- ?x316 ?x317) ?x319) 0.0))))))
(assert
 (let ((?x368 (* l_0_2_7 l_0_2_7)))
 (let ((?x334 (* l_0_2_6 l_0_2_6)))
 (let ((?x328 (* l_0_2_5 l_0_2_5)))
 (let ((?x358 (* (/ 8.0 5.0) _a_2_)))
 (let ((?x352 (* (/ 64.0 25.0) _a_1_)))
 (let ((?x350 (- (* (* (- _a_0_) l_0_2_1) l_0_2_1) (* _a_1_ (+ (* l_0_2_2 l_0_2_2) (* l_0_2_3 l_0_2_3))))))
 (let ((?x359 (+ (- (+ ?x350 ?x352) (* (* (* 2.0 _a_2_) l_0_2_1) l_0_2_2)) ?x358)))
 (let ((?x365 (- (- ?x359 (* (* (/ 14.0 5.0) l_0_2_4) l_0_2_5)) (* (* (/ 51.0 100.0) l_0_2_4) l_0_2_4))))
 (= (- (+ (+ ?x365 ?x328) ?x334) ?x368) 0.0))))))))))
(assert
 (let ((?x417 (- (- (* (* (* (- 2.0) _a_1_) l_0_2_1) l_0_2_2) (* (/ 128.0 25.0) _a_1_)) (* (* _a_2_ l_0_2_1) l_0_2_1))))
 (let ((?x423 (- (+ ?x417 (* (* 2.0 l_0_2_4) l_0_2_5)) (* (* (/ 7.0 5.0) l_0_2_4) l_0_2_4))))
 (= ?x423 0.0))))
(assert
 (let ((?x399 (* l_0_2_4 l_0_2_4)))
 (let ((?x451 (+ (+ (* (* (- _a_1_) l_0_2_1) l_0_2_1) (* (/ 64.0 25.0) _a_1_)) ?x399)))
 (= ?x451 0.0))))
(assert
 (let ((?x358 (* (/ 8.0 5.0) _a_2_)))
 (let ((?x460 (- (* (* (* (- 2.0) _a_0_) l_0_2_1) l_0_2_2) (* _a_2_ (+ (* l_0_2_2 l_0_2_2) (* l_0_2_3 l_0_2_3))))))
 (let ((?x467 (- (- (- ?x460 ?x358) (* (* (/ 51.0 50.0) l_0_2_4) l_0_2_5)) (* (* (/ 7.0 5.0) l_0_2_5) l_0_2_5))))
 (let ((?x473 (- (- ?x467 (* (* (/ 7.0 5.0) l_0_2_6) l_0_2_6)) (* (* 2.0 l_0_2_7) l_0_2_8))))
 (= ?x473 0.0))))))
(assert
 (>= l_0_2_1 0.0))
(assert
 (>= l_0_2_3 0.0))
(assert
 (>= l_0_2_4 0.0))
(assert
 (>= l_0_2_6 0.0))
(assert
 (>= l_0_2_7 0.0))
(assert
 (>= l_0_2_9 0.0))
(check-sat)
(get-model)